************************************************************************
file with basedata            : mm56_.bas
initial value random generator: 2083613613
************************************************************************
projects                      :  1
jobs (incl. supersource/sink ):  12
horizon                       :  84
RESOURCES
  - renewable                 :  2   R
  - nonrenewable              :  2   N
  - doubly constrained        :  0   D
************************************************************************
PROJECT INFORMATION:
pronr.  #jobs rel.date duedate tardcost  MPM-Time
    1     10      0       15        3       15
************************************************************************
PRECEDENCE RELATIONS:
jobnr.    #modes  #successors   successors
   0        1          3           1   2   3
   1        3          1           4
   2        3          2           7   8
   3        3          2           5   6
   4        3          1          10
   5        3          2           7   8
   6        3          3           7   8   9
   7        3          1          10
   8        3          1          11
   9        3          1          11
  10        3          1          11
  11        1          0        
************************************************************************
REQUESTS/DURATIONS:
jobnr. mode duration  R 1  R 2  R 3  R 4  E(W 1)  E(W 2)  E(W 3)
------------------------------------------------------------------------
  0      1     0       0    0    0    0     0       0       0
  1      1     5       5    5    8    5    50      40      25
  2      1     1       7    9    7    7    16       7       7
  3      1     1       3    4    9    6     7       9       6
  4      1     1       6    5    6    7    11       6       7
  5      1     1      10    4    7    3    14       7       3
  6      1     7       9   10    5    8    133      35      56
  7      1     3       4    1    5   10    18      15      30
  8      1     2       9    8    7    7    34      14      14
  9      1     7       4    8    2    8    84      14      56
 10      1     2       7    6    3    9    26       6      18
 11      1     0       0    0    0    0     0       0       0
************************************************************************
RESOURCEAVAILABILITIES:
  R 1  R 2  R 3
   36   59   71
************************************************************************
RESOURCE LIMITS:
jobnr.  l(R 1)  u(R 1)  l(R 2)  u(R 2)  l(R 3)  u(R 3)
------------------------------------------------------------------------
  0        0       0       0       0       0       0
  1        6      10       4       8       3       5
  2        9      16       4       7       4       7
  3        4       7       5       9       3       6
  4        6      11       3       6       4       7
  5        7      14       4       7       2       3
  6       10      19       3       5       4       8
  7        3       6       3       5       5      10
  8        9      17       4       7       4       7
  9        6      12       1       2       4       8
 10        7      13       2       3       5       9
 11        0       0       0       0       0       0
************************************************************************
SCENARIOS:
------------------------------------------------------------------------
RESOURCE k = 1
s = 1: (0, 43, 16, 6, 8, 10, 102, 28, 30, 49, 23, 0)
s = 2: (0, 27, 24, 7, 10, 9, 161, 12, 25, 83, 41, 0)
s = 3: (0, 27, 21, 6, 14, 20, 196, 15, 35, 101, 41, 0)
s = 4: (0, 43, 21, 5, 9, 14, 211, 18, 24, 80, 21, 0)
s = 5: (0, 61, 14, 10, 9, 11, 147, 24, 37, 82, 32, 0)
s = 6: (0, 77, 10, 6, 12, 11, 110, 15, 43, 78, 34, 0)
s = 7: (0, 55, 16, 9, 8, 9, 133, 17, 38, 62, 35, 0)
s = 8: (0, 52, 12, 5, 18, 24, 184, 10, 34, 61, 25, 0)
s = 9: (0, 33, 12, 9, 9, 14, 113, 16, 57, 67, 21, 0)
s = 10: (0, 30, 19, 9, 11, 8, 101, 11, 18, 93, 16, 0)
s = 11: (0, 50, 13, 9, 10, 15, 123, 15, 38, 107, 25, 0)
s = 12: (0, 61, 13, 7, 13, 18, 139, 20, 35, 87, 20, 0)
s = 13: (0, 36, 12, 5, 11, 14, 142, 18, 26, 58, 31, 0)
s = 14: (0, 30, 18, 6, 8, 13, 137, 28, 23, 109, 28, 0)
s = 15: (0, 37, 20, 9, 11, 10, 136, 14, 26, 84, 35, 0)
s = 16: (0, 61, 20, 6, 12, 15, 135, 20, 29, 81, 42, 0)
s = 17: (0, 48, 21, 13, 17, 15, 139, 12, 30, 123, 28, 0)
s = 18: (0, 43, 11, 8, 11, 13, 183, 17, 24, 65, 20, 0)
s = 19: (0, 68, 11, 5, 7, 14, 140, 22, 27, 124, 38, 0)
s = 20: (0, 46, 14, 7, 8, 12, 134, 20, 22, 66, 18, 0)
s = 21: (0, 29, 18, 5, 9, 17, 91, 21, 39, 63, 16, 0)
s = 22: (0, 43, 21, 8, 14, 19, 86, 12, 36, 97, 25, 0)
s = 23: (0, 30, 16, 8, 9, 11, 142, 17, 57, 67, 20, 0)
s = 24: (0, 66, 21, 9, 15, 11, 134, 18, 39, 81, 38, 0)
s = 25: (0, 43, 14, 5, 10, 13, 136, 25, 33, 92, 37, 0)
s = 26: (0, 74, 11, 7, 13, 19, 209, 11, 30, 87, 27, 0)
s = 27: (0, 33, 27, 7, 10, 9, 72, 20, 49, 106, 32, 0)
s = 28: (0, 35, 16, 5, 12, 11, 88, 15, 38, 76, 21, 0)
s = 29: (0, 55, 17, 8, 13, 14, 178, 14, 53, 83, 26, 0)
s = 30: (0, 39, 21, 5, 16, 17, 175, 22, 29, 77, 30, 0)
s = 31: (0, 54, 9, 7, 11, 13, 129, 18, 39, 76, 20, 0)
s = 32: (0, 77, 14, 9, 11, 15, 151, 14, 38, 126, 36, 0)
s = 33: (0, 63, 17, 5, 12, 19, 130, 17, 36, 87, 19, 0)
s = 34: (0, 69, 20, 5, 9, 12, 90, 10, 34, 142, 23, 0)
s = 35: (0, 50, 13, 6, 8, 18, 150, 28, 48, 106, 28, 0)
s = 36: (0, 38, 20, 9, 11, 13, 131, 21, 32, 83, 39, 0)
s = 37: (0, 51, 14, 8, 13, 14, 129, 18, 36, 77, 28, 0)
s = 38: (0, 45, 20, 8, 13, 18, 109, 17, 29, 133, 17, 0)
s = 39: (0, 62, 12, 5, 17, 11, 159, 16, 22, 71, 28, 0)
s = 40: (0, 33, 14, 6, 11, 19, 71, 23, 24, 123, 20, 0)
s = 41: (0, 63, 12, 6, 8, 13, 106, 23, 42, 85, 26, 0)
s = 42: (0, 44, 20, 6, 13, 23, 106, 11, 26, 88, 20, 0)
s = 43: (0, 53, 10, 9, 12, 14, 187, 21, 27, 49, 24, 0)
s = 44: (0, 40, 21, 8, 14, 8, 120, 12, 39, 51, 17, 0)
s = 45: (0, 50, 13, 8, 16, 16, 164, 15, 49, 97, 24, 0)
s = 46: (0, 36, 20, 7, 19, 11, 93, 12, 29, 94, 21, 0)
s = 47: (0, 45, 20, 5, 12, 21, 142, 23, 30, 85, 17, 0)
s = 48: (0, 60, 11, 8, 8, 14, 146, 13, 38, 88, 30, 0)
s = 49: (0, 38, 13, 8, 16, 11, 106, 17, 29, 116, 20, 0)
s = 50: (0, 81, 25, 7, 17, 18, 139, 15, 38, 139, 26, 0)
s = 51: (0, 57, 20, 5, 7, 12, 106, 16, 32, 128, 31, 0)
s = 52: (0, 41, 12, 7, 11, 15, 110, 11, 33, 67, 26, 0)
s = 53: (0, 52, 16, 8, 8, 17, 152, 22, 36, 88, 30, 0)
s = 54: (0, 45, 19, 8, 13, 15, 160, 18, 41, 118, 21, 0)
s = 55: (0, 48, 18, 11, 14, 17, 132, 13, 34, 50, 29, 0)
s = 56: (0, 29, 15, 9, 10, 13, 84, 20, 33, 48, 28, 0)
s = 57: (0, 30, 14, 6, 7, 12, 172, 19, 27, 75, 18, 0)
s = 58: (0, 74, 20, 7, 12, 11, 137, 16, 28, 72, 27, 0)
s = 59: (0, 49, 15, 7, 11, 12, 115, 16, 42, 66, 23, 0)
s = 60: (0, 33, 17, 10, 9, 15, 113, 17, 36, 81, 21, 0)
s = 61: (0, 72, 19, 13, 14, 18, 131, 22, 38, 75, 37, 0)
s = 62: (0, 37, 12, 6, 10, 13, 178, 26, 48, 77, 35, 0)
s = 63: (0, 50, 11, 6, 12, 13, 176, 22, 25, 84, 17, 0)
s = 64: (0, 46, 11, 6, 9, 13, 101, 18, 21, 70, 27, 0)
s = 65: (0, 56, 15, 4, 13, 10, 135, 16, 57, 96, 31, 0)
s = 66: (0, 41, 16, 8, 8, 12, 155, 20, 57, 89, 20, 0)
s = 67: (0, 43, 26, 7, 14, 16, 119, 19, 53, 115, 28, 0)
s = 68: (0, 73, 15, 10, 10, 14, 166, 17, 41, 153, 27, 0)
s = 69: (0, 59, 14, 7, 10, 27, 93, 12, 45, 75, 18, 0)
s = 70: (0, 53, 19, 8, 17, 12, 129, 16, 20, 75, 24, 0)
s = 71: (0, 36, 13, 8, 13, 9, 93, 24, 26, 111, 29, 0)
s = 72: (0, 42, 22, 11, 17, 13, 169, 15, 23, 60, 30, 0)
s = 73: (0, 59, 12, 5, 8, 11, 109, 27, 32, 84, 37, 0)
s = 74: (0, 31, 18, 7, 8, 12, 146, 21, 42, 158, 20, 0)
s = 75: (0, 33, 14, 8, 12, 11, 178, 23, 31, 83, 27, 0)
s = 76: (0, 51, 20, 6, 10, 20, 106, 12, 46, 55, 23, 0)
s = 77: (0, 55, 16, 5, 12, 21, 152, 14, 31, 144, 33, 0)
s = 78: (0, 39, 11, 10, 17, 12, 135, 21, 30, 46, 23, 0)
s = 79: (0, 40, 20, 8, 14, 14, 137, 17, 31, 59, 37, 0)
s = 80: (0, 43, 18, 6, 10, 12, 87, 29, 25, 67, 29, 0)
s = 81: (0, 60, 10, 7, 8, 17, 125, 15, 37, 111, 24, 0)
s = 82: (0, 40, 9, 5, 13, 18, 154, 19, 33, 59, 32, 0)
s = 83: (0, 79, 17, 8, 12, 19, 141, 11, 36, 95, 31, 0)
s = 84: (0, 32, 14, 6, 10, 16, 96, 12, 34, 114, 25, 0)
s = 85: (0, 53, 14, 8, 10, 19, 123, 24, 31, 104, 19, 0)
s = 86: (0, 77, 18, 7, 10, 18, 130, 18, 34, 95, 42, 0)
s = 87: (0, 79, 19, 7, 20, 16, 137, 15, 24, 78, 33, 0)
s = 88: (0, 29, 21, 6, 13, 14, 166, 20, 26, 91, 23, 0)
s = 89: (0, 62, 19, 6, 14, 8, 157, 16, 41, 98, 17, 0)
s = 90: (0, 43, 15, 11, 18, 16, 89, 14, 33, 109, 25, 0)
s = 91: (0, 62, 16, 6, 19, 9, 172, 13, 31, 94, 25, 0)
s = 92: (0, 40, 12, 5, 15, 17, 83, 14, 34, 74, 18, 0)
s = 93: (0, 40, 12, 9, 18, 13, 127, 12, 34, 51, 29, 0)
s = 94: (0, 40, 16, 5, 15, 12, 86, 32, 23, 88, 36, 0)
s = 95: (0, 58, 15, 6, 8, 16, 100, 12, 43, 127, 21, 0)
s = 96: (0, 51, 18, 11, 6, 14, 84, 17, 34, 63, 35, 0)
s = 97: (0, 59, 14, 9, 13, 17, 154, 22, 45, 95, 30, 0)
s = 98: (0, 30, 26, 4, 10, 14, 104, 14, 31, 59, 22, 0)
s = 99: (0, 75, 19, 5, 14, 14, 96, 29, 52, 131, 20, 0)
s = 100: (0, 66, 22, 9, 16, 12, 108, 20, 36, 87, 20, 0)
s = 101: (0, 32, 19, 9, 7, 15, 155, 20, 19, 73, 27, 0)
s = 102: (0, 47, 12, 5, 14, 8, 110, 19, 20, 69, 19, 0)
s = 103: (0, 50, 18, 7, 10, 25, 107, 18, 29, 96, 27, 0)
s = 104: (0, 45, 18, 7, 14, 10, 165, 14, 29, 62, 32, 0)
s = 105: (0, 29, 11, 7, 10, 19, 151, 23, 36, 116, 22, 0)
s = 106: (0, 55, 17, 10, 9, 11, 98, 23, 34, 93, 15, 0)
s = 107: (0, 40, 17, 6, 8, 12, 198, 20, 50, 82, 27, 0)
s = 108: (0, 53, 15, 9, 14, 17, 124, 10, 48, 55, 41, 0)
s = 109: (0, 41, 14, 12, 15, 8, 89, 17, 41, 115, 42, 0)
s = 110: (0, 79, 17, 6, 9, 12, 140, 16, 23, 75, 38, 0)
s = 111: (0, 56, 12, 9, 8, 17, 185, 18, 32, 74, 16, 0)
s = 112: (0, 57, 26, 10, 10, 21, 225, 14, 31, 62, 23, 0)
s = 113: (0, 48, 11, 5, 8, 11, 97, 15, 34, 84, 44, 0)
s = 114: (0, 41, 27, 8, 14, 17, 120, 15, 28, 60, 29, 0)
s = 115: (0, 51, 15, 6, 10, 14, 190, 19, 33, 80, 20, 0)
s = 116: (0, 47, 24, 11, 9, 11, 146, 27, 36, 103, 32, 0)
s = 117: (0, 44, 11, 5, 13, 10, 180, 17, 22, 76, 27, 0)
s = 118: (0, 70, 21, 6, 12, 12, 88, 23, 36, 123, 19, 0)
s = 119: (0, 40, 12, 5, 17, 15, 149, 16, 24, 88, 20, 0)
s = 120: (0, 41, 26, 10, 15, 14, 146, 22, 40, 73, 25, 0)
s = 121: (0, 29, 18, 7, 14, 13, 119, 18, 35, 52, 20, 0)
s = 122: (0, 49, 20, 11, 15, 11, 111, 17, 25, 122, 27, 0)
s = 123: (0, 53, 28, 6, 11, 19, 185, 21, 33, 99, 24, 0)
s = 124: (0, 50, 28, 6, 7, 20, 196, 22, 19, 105, 31, 0)
s = 125: (0, 54, 13, 7, 13, 21, 151, 32, 30, 111, 34, 0)
s = 126: (0, 56, 32, 5, 8, 19, 86, 16, 36, 52, 17, 0)
s = 127: (0, 41, 14, 5, 10, 12, 89, 33, 29, 81, 43, 0)
s = 128: (0, 36, 13, 7, 20, 12, 106, 20, 24, 88, 25, 0)
s = 129: (0, 55, 16, 7, 12, 18, 164, 13, 43, 91, 19, 0)
s = 130: (0, 40, 23, 7, 13, 13, 113, 19, 27, 89, 26, 0)
s = 131: (0, 73, 14, 8, 12, 9, 73, 22, 32, 48, 18, 0)
s = 132: (0, 61, 22, 6, 8, 18, 100, 15, 33, 72, 22, 0)
s = 133: (0, 39, 17, 10, 17, 11, 102, 13, 33, 58, 29, 0)
s = 134: (0, 54, 10, 10, 14, 18, 80, 28, 31, 88, 25, 0)
s = 135: (0, 56, 13, 6, 17, 15, 153, 13, 26, 94, 23, 0)
s = 136: (0, 32, 11, 11, 12, 14, 138, 15, 40, 115, 30, 0)
s = 137: (0, 55, 13, 7, 12, 17, 183, 15, 26, 115, 36, 0)
s = 138: (0, 42, 26, 7, 11, 20, 171, 24, 43, 109, 21, 0)
s = 139: (0, 42, 14, 13, 10, 14, 120, 16, 39, 64, 21, 0)
s = 140: (0, 46, 14, 8, 7, 19, 95, 23, 35, 72, 25, 0)
s = 141: (0, 47, 12, 6, 11, 16, 136, 21, 25, 56, 15, 0)
s = 142: (0, 42, 18, 4, 10, 16, 78, 17, 21, 55, 37, 0)
s = 143: (0, 37, 11, 6, 10, 11, 79, 12, 39, 60, 29, 0)
s = 144: (0, 66, 13, 9, 11, 15, 123, 18, 45, 94, 27, 0)
s = 145: (0, 58, 11, 9, 13, 18, 150, 17, 43, 84, 33, 0)
s = 146: (0, 57, 23, 6, 6, 17, 140, 12, 33, 88, 24, 0)
s = 147: (0, 59, 11, 6, 17, 13, 166, 17, 24, 99, 22, 0)
s = 148: (0, 42, 17, 6, 10, 10, 98, 15, 29, 87, 23, 0)
s = 149: (0, 44, 15, 12, 22, 13, 113, 15, 56, 103, 37, 0)
s = 150: (0, 75, 20, 9, 10, 10, 239, 18, 29, 109, 28, 0)
s = 151: (0, 39, 12, 7, 10, 14, 220, 16, 37, 86, 17, 0)
s = 152: (0, 46, 9, 10, 14, 10, 137, 22, 28, 92, 16, 0)
s = 153: (0, 56, 17, 9, 21, 18, 106, 20, 45, 126, 38, 0)
s = 154: (0, 64, 20, 6, 11, 9, 178, 22, 27, 58, 35, 0)
s = 155: (0, 57, 14, 8, 18, 16, 139, 17, 24, 77, 20, 0)
s = 156: (0, 62, 16, 6, 6, 13, 114, 31, 37, 80, 38, 0)
s = 157: (0, 60, 19, 9, 8, 12, 137, 16, 47, 52, 17, 0)
s = 158: (0, 63, 19, 11, 7, 22, 186, 10, 39, 72, 31, 0)
s = 159: (0, 55, 19, 6, 7, 19, 126, 28, 32, 83, 17, 0)
s = 160: (0, 45, 11, 7, 7, 21, 148, 17, 50, 82, 25, 0)
s = 161: (0, 39, 20, 9, 9, 11, 82, 23, 38, 87, 17, 0)
s = 162: (0, 36, 16, 6, 9, 12, 143, 19, 29, 98, 34, 0)
s = 163: (0, 44, 17, 8, 7, 9, 135, 19, 48, 86, 29, 0)
s = 164: (0, 30, 14, 9, 15, 8, 140, 11, 41, 63, 22, 0)
s = 165: (0, 32, 10, 9, 8, 16, 79, 17, 33, 113, 26, 0)
s = 166: (0, 45, 14, 8, 11, 8, 116, 15, 44, 103, 26, 0)
s = 167: (0, 47, 16, 6, 7, 17, 111, 22, 28, 113, 20, 0)
s = 168: (0, 42, 15, 7, 14, 13, 114, 21, 27, 67, 17, 0)
s = 169: (0, 33, 11, 7, 16, 11, 147, 24, 25, 77, 27, 0)
s = 170: (0, 71, 26, 9, 8, 14, 105, 10, 35, 74, 35, 0)
s = 171: (0, 44, 17, 7, 12, 19, 159, 24, 37, 91, 26, 0)
s = 172: (0, 68, 12, 8, 16, 15, 163, 25, 38, 92, 21, 0)
s = 173: (0, 57, 28, 8, 19, 15, 88, 12, 26, 92, 15, 0)
s = 174: (0, 43, 13, 11, 12, 13, 180, 28, 56, 118, 22, 0)
s = 175: (0, 33, 10, 9, 11, 13, 166, 21, 29, 81, 20, 0)
s = 176: (0, 44, 17, 10, 11, 10, 106, 24, 25, 59, 17, 0)
s = 177: (0, 78, 11, 5, 8, 17, 132, 11, 41, 105, 25, 0)
s = 178: (0, 41, 18, 7, 12, 13, 117, 21, 38, 100, 32, 0)
s = 179: (0, 69, 10, 10, 7, 14, 89, 26, 24, 152, 26, 0)
s = 180: (0, 51, 15, 6, 12, 23, 134, 18, 27, 62, 25, 0)
s = 181: (0, 42, 14, 5, 8, 10, 126, 19, 30, 64, 44, 0)
s = 182: (0, 37, 14, 9, 15, 11, 106, 22, 31, 70, 30, 0)
s = 183: (0, 44, 18, 8, 10, 12, 254, 16, 36, 70, 26, 0)
s = 184: (0, 36, 17, 6, 16, 9, 206, 15, 26, 54, 16, 0)
s = 185: (0, 62, 10, 8, 10, 12, 163, 16, 26, 94, 17, 0)
s = 186: (0, 66, 13, 8, 10, 18, 116, 26, 48, 87, 18, 0)
s = 187: (0, 54, 16, 9, 15, 21, 81, 14, 62, 61, 27, 0)
s = 188: (0, 29, 11, 8, 9, 12, 143, 25, 40, 128, 46, 0)
s = 189: (0, 36, 13, 9, 9, 9, 158, 18, 25, 91, 34, 0)
s = 190: (0, 33, 17, 7, 11, 12, 99, 16, 30, 83, 19, 0)
s = 191: (0, 31, 9, 10, 16, 17, 138, 18, 34, 85, 24, 0)
s = 192: (0, 34, 14, 6, 9, 14, 99, 12, 34, 80, 28, 0)
s = 193: (0, 41, 10, 5, 9, 18, 148, 26, 38, 107, 20, 0)
s = 194: (0, 37, 12, 7, 14, 15, 106, 16, 34, 79, 48, 0)
s = 195: (0, 47, 26, 5, 14, 14, 187, 10, 44, 102, 32, 0)
s = 196: (0, 76, 26, 8, 11, 9, 177, 12, 23, 115, 41, 0)
s = 197: (0, 34, 22, 8, 9, 11, 119, 24, 26, 52, 30, 0)
s = 198: (0, 43, 15, 6, 13, 14, 127, 12, 39, 94, 24, 0)
s = 199: (0, 52, 14, 7, 17, 15, 125, 16, 30, 104, 17, 0)
s = 200: (0, 61, 20, 12, 10, 18, 131, 11, 32, 71, 39, 0)
------------------------------------------------------------------------
RESOURCE k = 2
s = 1: (0, 34, 7, 8, 5, 5, 27, 24, 13, 9, 6, 0)
s = 2: (0, 22, 11, 8, 6, 5, 43, 10, 11, 14, 10, 0)
s = 3: (0, 21, 9, 7, 8, 10, 52, 13, 15, 17, 10, 0)
s = 4: (0, 34, 9, 7, 5, 7, 56, 15, 10, 14, 5, 0)
s = 5: (0, 49, 6, 13, 5, 6, 39, 20, 15, 14, 8, 0)
s = 6: (0, 62, 5, 8, 7, 6, 29, 13, 18, 13, 8, 0)
s = 7: (0, 44, 7, 11, 5, 5, 35, 14, 16, 11, 8, 0)
s = 8: (0, 42, 6, 7, 10, 12, 49, 9, 14, 11, 6, 0)
s = 9: (0, 27, 6, 11, 5, 7, 30, 14, 24, 12, 5, 0)
s = 10: (0, 24, 9, 12, 6, 4, 27, 9, 8, 16, 4, 0)
s = 11: (0, 40, 6, 12, 6, 8, 33, 12, 16, 18, 6, 0)
s = 12: (0, 49, 6, 9, 8, 9, 37, 17, 15, 15, 5, 0)
s = 13: (0, 29, 6, 6, 6, 7, 38, 15, 11, 10, 8, 0)
s = 14: (0, 24, 8, 8, 5, 7, 37, 23, 10, 19, 7, 0)
s = 15: (0, 29, 9, 12, 6, 5, 36, 11, 11, 14, 9, 0)
s = 16: (0, 49, 9, 8, 7, 8, 36, 17, 12, 14, 10, 0)
s = 17: (0, 39, 9, 16, 10, 8, 37, 10, 13, 21, 7, 0)
s = 18: (0, 34, 5, 10, 6, 7, 49, 14, 10, 11, 5, 0)
s = 19: (0, 55, 5, 7, 4, 7, 37, 18, 11, 21, 9, 0)
s = 20: (0, 37, 6, 9, 5, 6, 36, 17, 9, 11, 5, 0)
s = 21: (0, 23, 8, 6, 5, 9, 24, 17, 16, 11, 4, 0)
s = 22: (0, 35, 9, 10, 8, 10, 23, 10, 15, 17, 6, 0)
s = 23: (0, 24, 7, 10, 5, 6, 38, 14, 24, 12, 5, 0)
s = 24: (0, 53, 9, 12, 8, 6, 36, 15, 16, 14, 9, 0)
s = 25: (0, 34, 6, 7, 6, 7, 36, 21, 14, 16, 9, 0)
s = 26: (0, 59, 5, 9, 7, 10, 55, 9, 13, 15, 7, 0)
s = 27: (0, 27, 12, 9, 6, 5, 19, 17, 21, 18, 8, 0)
s = 28: (0, 28, 7, 6, 7, 6, 23, 13, 16, 13, 5, 0)
s = 29: (0, 44, 8, 10, 7, 7, 47, 12, 22, 14, 6, 0)
s = 30: (0, 31, 9, 6, 9, 9, 46, 18, 12, 13, 7, 0)
s = 31: (0, 43, 4, 9, 6, 7, 34, 15, 16, 13, 5, 0)
s = 32: (0, 62, 6, 11, 6, 8, 40, 12, 16, 21, 9, 0)
s = 33: (0, 50, 8, 6, 7, 10, 35, 15, 15, 15, 5, 0)
s = 34: (0, 55, 9, 7, 5, 6, 24, 9, 14, 24, 6, 0)
s = 35: (0, 40, 6, 8, 5, 9, 40, 23, 20, 18, 7, 0)
s = 36: (0, 30, 9, 11, 6, 7, 35, 18, 13, 14, 9, 0)
s = 37: (0, 41, 6, 10, 7, 7, 34, 15, 15, 13, 7, 0)
s = 38: (0, 36, 9, 10, 7, 9, 29, 14, 12, 23, 4, 0)
s = 39: (0, 50, 6, 6, 9, 6, 42, 13, 9, 12, 7, 0)
s = 40: (0, 26, 6, 7, 6, 10, 19, 20, 10, 21, 5, 0)
s = 41: (0, 50, 5, 8, 5, 7, 28, 19, 17, 15, 6, 0)
s = 42: (0, 35, 9, 7, 7, 12, 28, 9, 11, 15, 5, 0)
s = 43: (0, 42, 5, 11, 7, 7, 49, 18, 11, 9, 6, 0)
s = 44: (0, 32, 9, 10, 8, 4, 32, 10, 16, 9, 4, 0)
s = 45: (0, 40, 6, 10, 9, 8, 44, 12, 20, 17, 6, 0)
s = 46: (0, 29, 9, 9, 11, 6, 25, 10, 12, 16, 5, 0)
s = 47: (0, 36, 9, 6, 7, 11, 38, 19, 13, 15, 4, 0)
s = 48: (0, 48, 5, 11, 5, 7, 39, 11, 16, 15, 7, 0)
s = 49: (0, 30, 6, 10, 9, 6, 28, 14, 12, 20, 5, 0)
s = 50: (0, 65, 11, 9, 9, 9, 37, 12, 16, 24, 6, 0)
s = 51: (0, 46, 9, 6, 4, 6, 28, 14, 13, 22, 7, 0)
s = 52: (0, 33, 5, 8, 6, 8, 29, 9, 14, 12, 6, 0)
s = 53: (0, 42, 7, 10, 5, 9, 40, 18, 15, 15, 7, 0)
s = 54: (0, 36, 9, 11, 7, 8, 42, 15, 17, 20, 5, 0)
s = 55: (0, 38, 8, 13, 8, 9, 35, 11, 14, 9, 7, 0)
s = 56: (0, 24, 7, 11, 6, 7, 22, 17, 14, 8, 7, 0)
s = 57: (0, 24, 6, 7, 4, 6, 46, 16, 11, 13, 5, 0)
s = 58: (0, 59, 9, 9, 7, 6, 36, 14, 12, 12, 7, 0)
s = 59: (0, 39, 7, 9, 6, 6, 31, 14, 18, 11, 6, 0)
s = 60: (0, 27, 8, 12, 5, 8, 30, 14, 15, 14, 5, 0)
s = 61: (0, 58, 9, 16, 8, 9, 35, 19, 16, 13, 9, 0)
s = 62: (0, 30, 5, 8, 6, 7, 47, 22, 20, 13, 8, 0)
s = 63: (0, 40, 5, 7, 7, 7, 47, 18, 10, 14, 4, 0)
s = 64: (0, 37, 5, 8, 5, 7, 27, 15, 9, 12, 7, 0)
s = 65: (0, 45, 7, 6, 7, 5, 36, 13, 24, 16, 7, 0)
s = 66: (0, 33, 7, 11, 4, 6, 41, 17, 24, 15, 5, 0)
s = 67: (0, 35, 12, 9, 8, 8, 32, 16, 22, 20, 7, 0)
s = 68: (0, 58, 7, 12, 6, 7, 44, 14, 17, 26, 7, 0)
s = 69: (0, 47, 6, 8, 6, 14, 25, 10, 19, 13, 5, 0)
s = 70: (0, 43, 9, 10, 10, 6, 34, 13, 9, 13, 6, 0)
s = 71: (0, 29, 6, 10, 8, 5, 25, 20, 11, 19, 7, 0)
s = 72: (0, 34, 10, 14, 9, 7, 45, 12, 10, 10, 7, 0)
s = 73: (0, 47, 6, 6, 5, 6, 29, 23, 14, 14, 9, 0)
s = 74: (0, 25, 8, 9, 5, 6, 39, 18, 17, 27, 5, 0)
s = 75: (0, 27, 6, 10, 7, 6, 47, 20, 13, 14, 7, 0)
s = 76: (0, 41, 9, 8, 5, 10, 28, 10, 19, 10, 6, 0)
s = 77: (0, 44, 7, 7, 7, 11, 40, 12, 13, 24, 8, 0)
s = 78: (0, 31, 5, 12, 10, 6, 36, 17, 13, 8, 6, 0)
s = 79: (0, 32, 9, 11, 8, 7, 36, 15, 13, 10, 9, 0)
s = 80: (0, 34, 8, 7, 6, 6, 23, 24, 11, 12, 7, 0)
s = 81: (0, 48, 5, 8, 5, 9, 33, 12, 15, 19, 6, 0)
s = 82: (0, 32, 4, 7, 7, 9, 41, 16, 14, 10, 8, 0)
s = 83: (0, 63, 8, 10, 7, 10, 37, 9, 15, 16, 8, 0)
s = 84: (0, 26, 7, 7, 6, 8, 26, 10, 14, 19, 6, 0)
s = 85: (0, 43, 7, 10, 5, 10, 33, 20, 13, 18, 5, 0)
s = 86: (0, 62, 8, 9, 5, 9, 34, 15, 14, 16, 10, 0)
s = 87: (0, 63, 9, 9, 11, 8, 36, 13, 10, 13, 8, 0)
s = 88: (0, 23, 9, 7, 8, 7, 44, 17, 11, 16, 6, 0)
s = 89: (0, 50, 9, 8, 8, 4, 42, 13, 17, 17, 4, 0)
s = 90: (0, 35, 7, 14, 10, 8, 24, 11, 14, 19, 6, 0)
s = 91: (0, 50, 7, 7, 11, 5, 46, 11, 13, 16, 6, 0)
s = 92: (0, 32, 6, 7, 8, 9, 22, 12, 14, 13, 5, 0)
s = 93: (0, 32, 5, 11, 10, 7, 34, 10, 14, 9, 7, 0)
s = 94: (0, 32, 7, 6, 9, 6, 23, 26, 10, 15, 9, 0)
s = 95: (0, 47, 7, 7, 5, 8, 27, 10, 18, 22, 5, 0)
s = 96: (0, 41, 8, 13, 4, 7, 22, 14, 14, 11, 8, 0)
s = 97: (0, 47, 6, 11, 7, 9, 41, 18, 19, 16, 7, 0)
s = 98: (0, 24, 12, 5, 6, 7, 28, 12, 13, 10, 5, 0)
s = 99: (0, 60, 9, 6, 8, 7, 26, 24, 22, 22, 5, 0)
s = 100: (0, 53, 10, 11, 9, 6, 29, 16, 15, 15, 5, 0)
s = 101: (0, 26, 8, 11, 4, 8, 41, 17, 8, 13, 7, 0)
s = 102: (0, 38, 5, 6, 8, 4, 29, 16, 9, 12, 5, 0)
s = 103: (0, 40, 8, 9, 5, 13, 29, 15, 12, 16, 7, 0)
s = 104: (0, 36, 8, 9, 8, 5, 44, 12, 12, 11, 8, 0)
s = 105: (0, 23, 5, 9, 6, 10, 40, 19, 15, 20, 6, 0)
s = 106: (0, 44, 8, 12, 5, 6, 26, 19, 14, 16, 4, 0)
s = 107: (0, 32, 8, 7, 4, 6, 52, 17, 21, 14, 7, 0)
s = 108: (0, 42, 7, 12, 8, 9, 33, 9, 20, 10, 10, 0)
s = 109: (0, 33, 6, 16, 8, 4, 24, 14, 17, 20, 10, 0)
s = 110: (0, 64, 8, 7, 5, 6, 37, 13, 10, 13, 9, 0)
s = 111: (0, 45, 6, 11, 5, 9, 49, 15, 13, 13, 4, 0)
s = 112: (0, 46, 12, 12, 5, 11, 60, 11, 13, 11, 6, 0)
s = 113: (0, 39, 5, 6, 5, 6, 26, 12, 14, 14, 11, 0)
s = 114: (0, 33, 12, 10, 8, 9, 32, 13, 12, 10, 7, 0)
s = 115: (0, 41, 7, 7, 6, 7, 50, 16, 14, 14, 5, 0)
s = 116: (0, 38, 11, 14, 5, 6, 39, 23, 15, 18, 8, 0)
s = 117: (0, 35, 5, 6, 7, 5, 48, 14, 10, 13, 7, 0)
s = 118: (0, 56, 10, 7, 7, 6, 24, 20, 15, 21, 5, 0)
s = 119: (0, 32, 5, 7, 9, 8, 40, 13, 10, 15, 5, 0)
s = 120: (0, 33, 11, 13, 8, 7, 39, 18, 17, 13, 6, 0)
s = 121: (0, 24, 8, 9, 8, 7, 32, 15, 15, 9, 5, 0)
s = 122: (0, 40, 9, 14, 8, 6, 30, 14, 10, 21, 7, 0)
s = 123: (0, 42, 13, 8, 6, 10, 49, 18, 14, 17, 6, 0)
s = 124: (0, 40, 13, 7, 4, 10, 52, 18, 8, 18, 8, 0)
s = 125: (0, 44, 6, 8, 7, 11, 40, 27, 13, 19, 8, 0)
s = 126: (0, 45, 14, 7, 4, 10, 23, 14, 15, 9, 4, 0)
s = 127: (0, 33, 6, 7, 6, 6, 24, 28, 12, 14, 10, 0)
s = 128: (0, 29, 6, 9, 11, 6, 28, 17, 10, 15, 6, 0)
s = 129: (0, 44, 7, 8, 7, 9, 43, 11, 18, 16, 5, 0)
s = 130: (0, 32, 10, 8, 7, 7, 30, 16, 12, 15, 6, 0)
s = 131: (0, 59, 6, 10, 7, 5, 20, 18, 14, 8, 4, 0)
s = 132: (0, 49, 10, 7, 5, 9, 27, 13, 14, 12, 5, 0)
s = 133: (0, 32, 8, 13, 9, 6, 27, 11, 14, 10, 7, 0)
s = 134: (0, 43, 5, 13, 8, 9, 21, 23, 13, 15, 6, 0)
s = 135: (0, 45, 6, 7, 10, 8, 41, 11, 11, 16, 6, 0)
s = 136: (0, 26, 5, 14, 7, 7, 37, 13, 17, 20, 7, 0)
s = 137: (0, 44, 6, 8, 7, 9, 49, 13, 11, 20, 9, 0)
s = 138: (0, 34, 12, 9, 6, 10, 45, 20, 18, 19, 5, 0)
s = 139: (0, 34, 7, 16, 6, 7, 32, 13, 16, 11, 5, 0)
s = 140: (0, 37, 6, 10, 4, 10, 25, 19, 15, 12, 6, 0)
s = 141: (0, 38, 6, 7, 6, 8, 36, 18, 11, 10, 4, 0)
s = 142: (0, 34, 8, 6, 5, 8, 21, 15, 9, 10, 9, 0)
s = 143: (0, 30, 5, 7, 5, 6, 21, 10, 16, 10, 7, 0)
s = 144: (0, 53, 6, 12, 6, 8, 33, 15, 19, 16, 7, 0)
s = 145: (0, 47, 5, 11, 7, 9, 40, 14, 18, 14, 8, 0)
s = 146: (0, 46, 10, 7, 4, 9, 37, 10, 14, 15, 6, 0)
s = 147: (0, 47, 5, 7, 9, 7, 44, 15, 10, 17, 5, 0)
s = 148: (0, 34, 8, 8, 6, 5, 26, 13, 12, 15, 6, 0)
s = 149: (0, 35, 7, 15, 12, 7, 30, 12, 23, 18, 9, 0)
s = 150: (0, 60, 9, 11, 6, 5, 63, 15, 12, 19, 7, 0)
s = 151: (0, 31, 5, 9, 6, 7, 58, 14, 15, 15, 4, 0)
s = 152: (0, 37, 4, 13, 8, 5, 36, 18, 12, 16, 4, 0)
s = 153: (0, 45, 8, 12, 12, 9, 28, 17, 19, 21, 9, 0)
s = 154: (0, 51, 9, 7, 6, 5, 47, 18, 11, 10, 9, 0)
s = 155: (0, 46, 6, 10, 10, 8, 37, 15, 10, 13, 5, 0)
s = 156: (0, 50, 7, 8, 4, 7, 30, 26, 16, 14, 9, 0)
s = 157: (0, 48, 8, 11, 5, 6, 36, 13, 20, 9, 4, 0)
s = 158: (0, 51, 9, 13, 4, 11, 49, 9, 16, 12, 7, 0)
s = 159: (0, 44, 9, 7, 4, 10, 34, 24, 14, 14, 4, 0)
s = 160: (0, 36, 5, 9, 4, 11, 39, 14, 21, 14, 6, 0)
s = 161: (0, 31, 9, 11, 5, 6, 22, 19, 16, 15, 4, 0)
s = 162: (0, 29, 7, 8, 5, 6, 38, 16, 12, 17, 8, 0)
s = 163: (0, 36, 8, 10, 4, 5, 36, 16, 20, 15, 7, 0)
s = 164: (0, 24, 7, 11, 8, 4, 37, 10, 17, 11, 5, 0)
s = 165: (0, 26, 5, 11, 5, 8, 21, 14, 14, 19, 6, 0)
s = 166: (0, 36, 6, 10, 6, 4, 31, 13, 18, 18, 6, 0)
s = 167: (0, 38, 7, 7, 4, 9, 30, 19, 12, 19, 5, 0)
s = 168: (0, 33, 7, 9, 8, 7, 30, 17, 11, 12, 4, 0)
s = 169: (0, 26, 5, 9, 9, 6, 39, 20, 11, 13, 7, 0)
s = 170: (0, 57, 12, 12, 5, 7, 28, 9, 15, 13, 8, 0)
s = 171: (0, 35, 8, 9, 7, 10, 42, 20, 15, 16, 6, 0)
s = 172: (0, 55, 5, 10, 9, 8, 43, 21, 16, 16, 5, 0)
s = 173: (0, 46, 13, 10, 10, 8, 24, 10, 11, 16, 4, 0)
s = 174: (0, 34, 6, 14, 7, 7, 48, 24, 23, 20, 5, 0)
s = 175: (0, 27, 5, 11, 6, 7, 44, 18, 12, 14, 5, 0)
s = 176: (0, 35, 8, 13, 6, 5, 28, 20, 11, 10, 4, 0)
s = 177: (0, 63, 5, 7, 4, 9, 35, 9, 17, 18, 6, 0)
s = 178: (0, 33, 8, 9, 7, 7, 31, 17, 16, 17, 8, 0)
s = 179: (0, 55, 5, 13, 4, 7, 24, 22, 10, 26, 6, 0)
s = 180: (0, 41, 7, 7, 7, 12, 36, 15, 11, 11, 6, 0)
s = 181: (0, 34, 6, 7, 5, 5, 34, 16, 13, 11, 10, 0)
s = 182: (0, 30, 6, 11, 8, 6, 28, 19, 13, 12, 7, 0)
s = 183: (0, 35, 8, 10, 6, 6, 67, 13, 15, 12, 6, 0)
s = 184: (0, 29, 8, 7, 9, 5, 55, 12, 11, 9, 4, 0)
s = 185: (0, 49, 5, 10, 6, 6, 43, 13, 11, 16, 4, 0)
s = 186: (0, 53, 6, 10, 6, 9, 31, 22, 20, 15, 5, 0)
s = 187: (0, 43, 7, 11, 8, 11, 22, 11, 26, 11, 7, 0)
s = 188: (0, 23, 5, 10, 5, 6, 38, 21, 17, 22, 11, 0)
s = 189: (0, 29, 6, 11, 5, 5, 42, 15, 10, 16, 8, 0)
s = 190: (0, 26, 8, 9, 6, 6, 26, 14, 13, 14, 5, 0)
s = 191: (0, 25, 4, 12, 9, 9, 37, 15, 14, 15, 6, 0)
s = 192: (0, 27, 6, 8, 5, 7, 26, 10, 14, 14, 7, 0)
s = 193: (0, 33, 5, 6, 5, 9, 39, 22, 16, 18, 5, 0)
s = 194: (0, 30, 6, 9, 8, 8, 28, 14, 14, 14, 11, 0)
s = 195: (0, 37, 12, 6, 8, 7, 50, 8, 19, 17, 8, 0)
s = 196: (0, 61, 11, 11, 6, 5, 47, 10, 10, 20, 10, 0)
s = 197: (0, 28, 10, 10, 5, 6, 32, 20, 11, 9, 7, 0)
s = 198: (0, 35, 7, 8, 7, 7, 34, 10, 16, 16, 6, 0)
s = 199: (0, 41, 6, 9, 10, 8, 33, 14, 13, 18, 4, 0)
s = 200: (0, 49, 9, 15, 5, 9, 35, 9, 13, 12, 9, 0)
------------------------------------------------------------------------
RESOURCE k = 3
s = 1: (0, 22, 7, 5, 5, 3, 43, 47, 13, 33, 16, 0)
s = 2: (0, 14, 11, 6, 7, 2, 68, 20, 11, 56, 29, 0)
s = 3: (0, 14, 9, 5, 9, 5, 83, 25, 15, 67, 29, 0)
s = 4: (0, 22, 9, 5, 6, 3, 89, 30, 10, 54, 15, 0)
s = 5: (0, 31, 6, 9, 6, 3, 62, 40, 15, 55, 22, 0)
s = 6: (0, 39, 5, 5, 8, 3, 46, 25, 18, 52, 24, 0)
s = 7: (0, 28, 7, 8, 5, 2, 56, 28, 16, 42, 24, 0)
s = 8: (0, 26, 6, 5, 12, 6, 78, 17, 14, 41, 18, 0)
s = 9: (0, 17, 6, 7, 6, 3, 48, 27, 24, 45, 15, 0)
s = 10: (0, 15, 9, 8, 7, 2, 43, 17, 8, 62, 11, 0)
s = 11: (0, 25, 6, 8, 6, 4, 52, 24, 16, 71, 18, 0)
s = 12: (0, 31, 6, 6, 9, 4, 59, 33, 15, 58, 14, 0)
s = 13: (0, 18, 6, 4, 7, 3, 60, 30, 11, 39, 22, 0)
s = 14: (0, 15, 8, 5, 5, 3, 58, 46, 10, 73, 20, 0)
s = 15: (0, 19, 9, 8, 7, 3, 58, 22, 11, 56, 25, 0)
s = 16: (0, 31, 9, 6, 8, 4, 57, 34, 12, 54, 30, 0)
s = 17: (0, 24, 9, 11, 11, 4, 59, 20, 13, 82, 19, 0)
s = 18: (0, 22, 5, 7, 7, 3, 77, 28, 10, 44, 14, 0)
s = 19: (0, 34, 5, 5, 4, 3, 59, 36, 11, 83, 27, 0)
s = 20: (0, 23, 6, 6, 5, 3, 57, 33, 9, 44, 13, 0)
s = 21: (0, 15, 8, 4, 6, 4, 39, 34, 16, 42, 12, 0)
s = 22: (0, 22, 9, 7, 9, 5, 36, 19, 15, 65, 18, 0)
s = 23: (0, 15, 7, 7, 6, 3, 60, 27, 24, 45, 14, 0)
s = 24: (0, 33, 9, 8, 10, 3, 57, 29, 16, 54, 26, 0)
s = 25: (0, 22, 6, 5, 6, 3, 57, 42, 14, 62, 25, 0)
s = 26: (0, 37, 5, 6, 9, 4, 88, 18, 13, 58, 19, 0)
s = 27: (0, 17, 12, 6, 7, 2, 30, 33, 21, 71, 22, 0)
s = 28: (0, 18, 7, 4, 8, 3, 37, 25, 16, 51, 14, 0)
s = 29: (0, 28, 8, 7, 9, 3, 75, 23, 22, 56, 18, 0)
s = 30: (0, 20, 9, 4, 10, 4, 74, 36, 12, 51, 21, 0)
s = 31: (0, 27, 4, 6, 7, 3, 55, 30, 16, 51, 14, 0)
s = 32: (0, 39, 6, 8, 7, 4, 64, 23, 16, 84, 25, 0)
s = 33: (0, 32, 8, 4, 8, 4, 55, 29, 15, 58, 13, 0)
s = 34: (0, 35, 9, 5, 6, 3, 38, 17, 14, 95, 16, 0)
s = 35: (0, 25, 6, 6, 6, 4, 63, 46, 20, 71, 20, 0)
s = 36: (0, 19, 9, 8, 7, 3, 56, 35, 13, 56, 27, 0)
s = 37: (0, 26, 6, 7, 8, 3, 55, 29, 15, 52, 19, 0)
s = 38: (0, 23, 9, 7, 8, 4, 46, 28, 12, 89, 12, 0)
s = 39: (0, 31, 6, 4, 11, 3, 67, 26, 9, 47, 20, 0)
s = 40: (0, 17, 6, 5, 7, 5, 30, 39, 10, 82, 14, 0)
s = 41: (0, 32, 5, 5, 6, 3, 45, 38, 17, 57, 18, 0)
s = 42: (0, 22, 9, 5, 8, 5, 45, 18, 11, 59, 14, 0)
s = 43: (0, 27, 5, 8, 8, 3, 79, 35, 11, 33, 17, 0)
s = 44: (0, 20, 9, 7, 9, 2, 51, 19, 16, 34, 12, 0)
s = 45: (0, 25, 6, 7, 10, 4, 69, 24, 20, 65, 17, 0)
s = 46: (0, 18, 9, 6, 13, 3, 39, 20, 12, 63, 15, 0)
s = 47: (0, 23, 9, 4, 8, 5, 60, 38, 13, 57, 12, 0)
s = 48: (0, 30, 5, 7, 5, 3, 62, 22, 16, 59, 21, 0)
s = 49: (0, 19, 6, 7, 10, 3, 45, 28, 12, 78, 14, 0)
s = 50: (0, 41, 11, 6, 11, 4, 59, 24, 16, 93, 18, 0)
s = 51: (0, 29, 9, 4, 5, 3, 45, 27, 13, 86, 21, 0)
s = 52: (0, 21, 5, 6, 7, 4, 47, 17, 14, 45, 18, 0)
s = 53: (0, 26, 7, 7, 5, 4, 64, 36, 15, 59, 21, 0)
s = 54: (0, 23, 9, 7, 9, 4, 68, 29, 17, 79, 15, 0)
s = 55: (0, 24, 8, 9, 9, 4, 56, 21, 14, 34, 20, 0)
s = 56: (0, 15, 7, 7, 6, 3, 36, 34, 14, 32, 19, 0)
s = 57: (0, 15, 6, 5, 4, 3, 73, 31, 11, 50, 13, 0)
s = 58: (0, 37, 9, 6, 8, 3, 58, 27, 12, 48, 19, 0)
s = 59: (0, 25, 7, 6, 7, 3, 49, 27, 18, 44, 16, 0)
s = 60: (0, 17, 8, 8, 6, 4, 48, 28, 15, 54, 14, 0)
s = 61: (0, 36, 9, 11, 9, 4, 55, 37, 16, 50, 26, 0)
s = 62: (0, 19, 5, 5, 7, 3, 75, 44, 20, 51, 24, 0)
s = 63: (0, 25, 5, 5, 8, 3, 74, 36, 10, 56, 12, 0)
s = 64: (0, 23, 5, 5, 6, 3, 43, 30, 9, 47, 19, 0)
s = 65: (0, 28, 7, 4, 8, 2, 57, 26, 24, 64, 21, 0)
s = 66: (0, 21, 7, 7, 5, 3, 66, 33, 24, 59, 14, 0)
s = 67: (0, 22, 12, 6, 9, 4, 50, 31, 22, 77, 19, 0)
s = 68: (0, 37, 7, 8, 7, 3, 70, 27, 17, 102, 19, 0)
s = 69: (0, 30, 6, 6, 6, 6, 40, 20, 19, 50, 13, 0)
s = 70: (0, 27, 9, 7, 11, 3, 55, 26, 9, 50, 17, 0)
s = 71: (0, 18, 6, 7, 9, 2, 39, 40, 11, 74, 20, 0)
s = 72: (0, 21, 10, 10, 11, 3, 71, 24, 10, 40, 21, 0)
s = 73: (0, 30, 6, 4, 5, 3, 46, 45, 14, 56, 26, 0)
s = 74: (0, 16, 8, 6, 5, 3, 62, 35, 17, 106, 14, 0)
s = 75: (0, 17, 6, 7, 8, 3, 75, 39, 13, 56, 19, 0)
s = 76: (0, 26, 9, 6, 6, 5, 45, 19, 19, 37, 16, 0)
s = 77: (0, 28, 7, 5, 8, 5, 64, 23, 13, 96, 23, 0)
s = 78: (0, 20, 5, 8, 11, 3, 57, 34, 13, 31, 16, 0)
s = 79: (0, 20, 9, 7, 9, 3, 58, 29, 13, 39, 26, 0)
s = 80: (0, 22, 8, 5, 7, 3, 37, 48, 11, 45, 20, 0)
s = 81: (0, 30, 5, 6, 5, 4, 53, 24, 15, 74, 17, 0)
s = 82: (0, 20, 4, 5, 8, 4, 65, 31, 14, 40, 22, 0)
s = 83: (0, 40, 8, 7, 8, 4, 60, 18, 15, 63, 22, 0)
s = 84: (0, 16, 7, 5, 6, 4, 41, 20, 14, 76, 17, 0)
s = 85: (0, 27, 7, 7, 6, 4, 52, 39, 13, 69, 13, 0)
s = 86: (0, 39, 8, 6, 6, 4, 55, 30, 14, 64, 29, 0)
s = 87: (0, 40, 9, 6, 13, 4, 58, 25, 10, 52, 23, 0)
s = 88: (0, 15, 9, 5, 9, 3, 70, 34, 11, 61, 16, 0)
s = 89: (0, 31, 9, 5, 9, 2, 66, 26, 17, 65, 12, 0)
s = 90: (0, 22, 7, 9, 12, 4, 38, 22, 14, 73, 18, 0)
s = 91: (0, 31, 7, 5, 12, 2, 73, 22, 13, 63, 17, 0)
s = 92: (0, 20, 6, 5, 10, 4, 35, 23, 14, 50, 13, 0)
s = 93: (0, 20, 5, 8, 12, 3, 54, 19, 14, 34, 20, 0)
s = 94: (0, 20, 7, 4, 10, 3, 36, 52, 10, 59, 25, 0)
s = 95: (0, 29, 7, 5, 5, 4, 42, 20, 18, 85, 15, 0)
s = 96: (0, 26, 8, 9, 4, 3, 36, 27, 14, 42, 24, 0)
s = 97: (0, 30, 6, 7, 9, 4, 65, 36, 19, 63, 21, 0)
s = 98: (0, 15, 12, 4, 7, 3, 44, 23, 13, 39, 15, 0)
s = 99: (0, 38, 9, 4, 9, 3, 41, 48, 22, 88, 14, 0)
s = 100: (0, 33, 10, 7, 10, 3, 46, 32, 15, 58, 14, 0)
s = 101: (0, 16, 8, 8, 5, 4, 66, 33, 8, 49, 19, 0)
s = 102: (0, 24, 5, 4, 9, 2, 47, 31, 9, 46, 14, 0)
s = 103: (0, 25, 8, 6, 6, 6, 45, 30, 12, 64, 19, 0)
s = 104: (0, 23, 8, 6, 9, 2, 70, 23, 12, 42, 22, 0)
s = 105: (0, 15, 5, 6, 7, 4, 64, 38, 15, 77, 16, 0)
s = 106: (0, 28, 8, 8, 6, 3, 42, 37, 14, 62, 11, 0)
s = 107: (0, 20, 8, 5, 5, 3, 84, 33, 21, 55, 19, 0)
s = 108: (0, 27, 7, 8, 9, 4, 53, 17, 20, 37, 28, 0)
s = 109: (0, 21, 6, 11, 10, 2, 38, 28, 17, 77, 29, 0)
s = 110: (0, 40, 8, 5, 6, 3, 59, 26, 10, 50, 26, 0)
s = 111: (0, 28, 6, 8, 6, 4, 78, 29, 13, 50, 12, 0)
s = 112: (0, 29, 12, 8, 6, 5, 95, 22, 13, 41, 16, 0)
s = 113: (0, 24, 5, 4, 5, 3, 41, 24, 14, 56, 31, 0)
s = 114: (0, 21, 12, 7, 9, 4, 51, 25, 12, 40, 20, 0)
s = 115: (0, 26, 7, 5, 7, 3, 80, 32, 14, 53, 14, 0)
s = 116: (0, 24, 11, 10, 6, 3, 62, 45, 15, 69, 22, 0)
s = 117: (0, 22, 5, 4, 9, 3, 76, 27, 10, 51, 19, 0)
s = 118: (0, 35, 10, 5, 8, 3, 37, 39, 15, 82, 13, 0)
s = 119: (0, 20, 5, 5, 11, 4, 63, 26, 10, 59, 14, 0)
s = 120: (0, 21, 11, 9, 10, 3, 62, 36, 17, 49, 17, 0)
s = 121: (0, 15, 8, 6, 9, 3, 50, 30, 15, 35, 14, 0)
s = 122: (0, 25, 9, 9, 10, 3, 47, 28, 10, 81, 19, 0)
s = 123: (0, 27, 13, 5, 7, 4, 78, 35, 14, 66, 17, 0)
s = 124: (0, 25, 13, 5, 5, 5, 83, 36, 8, 70, 22, 0)
s = 125: (0, 27, 6, 6, 8, 5, 64, 53, 13, 74, 24, 0)
s = 126: (0, 28, 14, 5, 5, 4, 37, 27, 15, 35, 12, 0)
s = 127: (0, 21, 6, 5, 6, 3, 38, 55, 12, 54, 30, 0)
s = 128: (0, 18, 6, 6, 13, 3, 45, 34, 10, 59, 18, 0)
s = 129: (0, 28, 7, 6, 8, 4, 69, 22, 18, 61, 13, 0)
s = 130: (0, 20, 10, 6, 9, 3, 48, 31, 12, 59, 18, 0)
s = 131: (0, 37, 6, 7, 8, 2, 31, 36, 14, 32, 12, 0)
s = 132: (0, 31, 10, 5, 5, 4, 42, 25, 14, 48, 15, 0)
s = 133: (0, 20, 8, 9, 11, 3, 43, 21, 14, 39, 20, 0)
s = 134: (0, 27, 5, 9, 9, 4, 34, 46, 13, 59, 17, 0)
s = 135: (0, 28, 6, 5, 11, 4, 65, 21, 11, 63, 16, 0)
s = 136: (0, 16, 5, 10, 8, 3, 58, 25, 17, 77, 21, 0)
s = 137: (0, 28, 6, 6, 8, 4, 77, 25, 11, 77, 25, 0)
s = 138: (0, 21, 12, 6, 7, 5, 72, 39, 18, 73, 15, 0)
s = 139: (0, 21, 7, 11, 6, 3, 51, 26, 16, 43, 14, 0)
s = 140: (0, 23, 6, 7, 5, 4, 40, 37, 15, 48, 17, 0)
s = 141: (0, 24, 6, 5, 7, 4, 57, 35, 11, 37, 10, 0)
s = 142: (0, 21, 8, 4, 6, 4, 33, 29, 9, 37, 26, 0)
s = 143: (0, 19, 5, 5, 6, 3, 33, 20, 16, 40, 21, 0)
s = 144: (0, 33, 6, 8, 7, 4, 52, 29, 19, 63, 19, 0)
s = 145: (0, 29, 5, 8, 9, 4, 64, 28, 18, 56, 23, 0)
s = 146: (0, 29, 10, 5, 4, 4, 59, 20, 14, 59, 17, 0)
s = 147: (0, 30, 5, 5, 11, 3, 70, 29, 10, 66, 15, 0)
s = 148: (0, 21, 8, 5, 7, 3, 41, 25, 12, 58, 16, 0)
s = 149: (0, 22, 7, 10, 14, 3, 48, 24, 23, 69, 26, 0)
s = 150: (0, 38, 9, 8, 7, 3, 101, 29, 12, 73, 20, 0)
s = 151: (0, 20, 5, 6, 7, 3, 93, 27, 15, 57, 12, 0)
s = 152: (0, 23, 4, 9, 9, 3, 58, 36, 12, 61, 11, 0)
s = 153: (0, 28, 8, 8, 13, 4, 45, 33, 19, 84, 27, 0)
s = 154: (0, 32, 9, 5, 7, 2, 75, 36, 11, 39, 25, 0)
s = 155: (0, 29, 6, 7, 12, 4, 59, 29, 10, 51, 14, 0)
s = 156: (0, 31, 7, 5, 4, 3, 48, 52, 16, 53, 26, 0)
s = 157: (0, 30, 8, 8, 5, 3, 58, 26, 20, 35, 12, 0)
s = 158: (0, 32, 9, 9, 5, 5, 79, 17, 16, 48, 21, 0)
s = 159: (0, 28, 9, 5, 5, 5, 54, 47, 14, 55, 12, 0)
s = 160: (0, 23, 5, 6, 5, 5, 62, 28, 21, 55, 17, 0)
s = 161: (0, 20, 9, 8, 6, 3, 35, 38, 16, 58, 12, 0)
s = 162: (0, 18, 7, 5, 6, 3, 61, 32, 12, 65, 24, 0)
s = 163: (0, 22, 8, 7, 5, 2, 57, 32, 20, 57, 20, 0)
s = 164: (0, 15, 7, 8, 9, 2, 59, 19, 17, 42, 15, 0)
s = 165: (0, 16, 5, 7, 5, 4, 33, 28, 14, 76, 18, 0)
s = 166: (0, 23, 6, 7, 7, 2, 49, 25, 18, 69, 18, 0)
s = 167: (0, 24, 7, 5, 5, 4, 47, 37, 12, 76, 14, 0)
s = 168: (0, 21, 7, 6, 9, 3, 48, 34, 11, 45, 12, 0)
s = 169: (0, 17, 5, 6, 11, 3, 62, 40, 11, 51, 19, 0)
s = 170: (0, 36, 12, 8, 6, 3, 45, 17, 15, 50, 24, 0)
s = 171: (0, 22, 8, 6, 8, 4, 67, 40, 15, 61, 18, 0)
s = 172: (0, 34, 5, 7, 10, 4, 69, 42, 16, 62, 15, 0)
s = 173: (0, 29, 13, 7, 12, 4, 37, 20, 11, 62, 11, 0)
s = 174: (0, 22, 6, 10, 8, 3, 76, 47, 23, 79, 15, 0)
s = 175: (0, 17, 5, 7, 7, 3, 70, 35, 12, 54, 14, 0)
s = 176: (0, 22, 8, 9, 7, 3, 45, 39, 11, 40, 12, 0)
s = 177: (0, 39, 5, 5, 5, 4, 56, 18, 17, 70, 18, 0)
s = 178: (0, 21, 8, 6, 8, 3, 49, 34, 16, 67, 22, 0)
s = 179: (0, 35, 5, 9, 5, 3, 38, 43, 10, 102, 18, 0)
s = 180: (0, 26, 7, 5, 8, 5, 57, 29, 11, 42, 18, 0)
s = 181: (0, 21, 6, 5, 5, 2, 53, 32, 13, 43, 30, 0)
s = 182: (0, 19, 6, 8, 10, 3, 45, 37, 13, 47, 21, 0)
s = 183: (0, 22, 8, 7, 6, 3, 107, 26, 15, 47, 18, 0)
s = 184: (0, 18, 8, 5, 10, 2, 87, 24, 11, 36, 12, 0)
s = 185: (0, 31, 5, 7, 6, 3, 69, 26, 11, 63, 12, 0)
s = 186: (0, 33, 6, 7, 6, 4, 49, 43, 20, 58, 13, 0)
s = 187: (0, 27, 7, 8, 10, 5, 34, 22, 26, 41, 19, 0)
s = 188: (0, 15, 5, 7, 6, 3, 60, 41, 17, 86, 32, 0)
s = 189: (0, 18, 6, 7, 6, 2, 67, 29, 10, 61, 24, 0)
s = 190: (0, 17, 8, 6, 7, 3, 42, 27, 13, 56, 13, 0)
s = 191: (0, 16, 4, 8, 10, 4, 58, 30, 14, 57, 17, 0)
s = 192: (0, 17, 6, 6, 6, 3, 42, 20, 14, 54, 19, 0)
s = 193: (0, 21, 5, 4, 6, 4, 63, 44, 16, 72, 14, 0)
s = 194: (0, 19, 6, 6, 9, 4, 45, 27, 14, 53, 33, 0)
s = 195: (0, 24, 12, 4, 9, 3, 79, 16, 19, 68, 22, 0)
s = 196: (0, 38, 11, 7, 7, 2, 75, 19, 10, 77, 29, 0)
s = 197: (0, 17, 10, 7, 6, 3, 51, 40, 11, 35, 21, 0)
s = 198: (0, 22, 7, 6, 8, 3, 54, 20, 16, 63, 17, 0)
s = 199: (0, 26, 6, 6, 11, 4, 53, 27, 13, 70, 12, 0)
s = 200: (0, 31, 9, 10, 6, 4, 55, 18, 13, 47, 27, 0)
************************************************************************
ES/LS-VALUES:
jobnr.   ES(i)    LS(i)
------------------------------------------------------------------------
  0        0        0
  1        0       69
  2        0       72
  3        0       54
  4        8       78
  5        1       72
  6        1       56
  7       14       74
  8       14       80
  9       14       70
 10       19       80
 11       27       84
************************************************************************
BIG-M-VALUES:
M1 = 81, M2 = 428
************************************************************************
